p wcnf 131 157 158 
1 83 33 0 
1 125 -71 0 
1 91 -115 0 
1 4 -84 0 
1 88 10 0 
1 130 -50 0 
1 -19 -129 0 
1 -29 37 0 
1 73 115 0 
1 36 -109 0 
1 -131 -29 0 
1 -55 118 0 
1 -5 -40 0 
1 28 73 0 
1 2 96 0 
1 72 128 0 
1 -35 107 0 
1 15 -63 0 
1 -16 -116 0 
1 -107 -52 0 
1 -125 -19 0 
1 -7 8 0 
1 -40 103 0 
1 -1 -37 0 
1 -9 -25 0 
1 -130 -59 0 
1 32 4 0 
1 -31 106 0 
1 131 44 0 
1 30 104 0 
1 -112 60 0 
1 -56 3 0 
1 -55 91 0 
1 -102 85 0 
1 -80 107 0 
1 -55 -78 0 
1 44 118 0 
1 -118 -62 0 
1 -60 -72 0 
1 75 -43 0 
1 -111 -9 0 
1 -37 -115 0 
1 63 -54 0 
1 46 9 0 
1 40 50 0 
1 121 -89 0 
1 -67 46 0 
1 -13 -61 0 
1 -107 38 0 
1 -60 121 0 
1 73 104 0 
1 31 122 0 
1 -122 77 0 
1 -29 125 0 
1 12 62 0 
1 55 -121 0 
1 -75 -49 0 
1 85 -37 0 
1 65 -122 0 
1 -61 102 0 
1 -91 29 0 
1 -125 7 0 
1 98 94 0 
1 -115 -131 0 
1 43 -84 0 
1 -121 107 0 
1 -2 128 0 
1 1 -14 0 
1 -42 28 0 
1 -129 -4 0 
1 -117 43 0 
1 26 -87 0 
1 -121 128 0 
1 78 72 0 
1 -54 44 0 
1 -102 -99 0 
1 -39 28 0 
1 125 120 0 
1 -13 8 0 
1 -110 -18 0 
1 -38 -99 0 
1 65 91 0 
1 -25 -76 0 
1 -126 18 0 
1 124 100 0 
1 61 -113 0 
1 -117 112 0 
1 92 116 0 
1 87 -62 0 
1 -35 122 0 
1 -25 15 0 
1 -38 50 0 
1 25 5 0 
1 -59 63 0 
1 101 97 0 
1 -93 30 0 
1 -67 -3 0 
1 -85 -91 0 
1 -37 -7 0 
1 -110 17 0 
1 61 104 0 
1 -83 -127 0 
1 -123 23 0 
1 -112 -4 0 
1 -32 122 0 
1 83 -109 0 
1 -125 84 0 
1 122 34 0 
1 71 -99 0 
1 -11 -104 0 
1 33 -128 0 
1 -44 -101 0 
1 15 54 0 
1 39 -60 0 
1 -17 -129 0 
1 -83 -54 0 
1 118 -1 0 
1 -22 -90 0 
1 27 81 0 
1 -62 -106 0 
1 65 79 0 
1 -73 86 0 
1 13 59 0 
1 -22 -126 0 
1 -1 -86 0 
1 122 123 0 
1 123 -122 0 
1 -74 -85 0 
1 -67 100 0 
1 -5 51 0 
1 113 -1 0 
1 -9 56 0 
1 25 -6 0 
1 -19 122 0 
1 -17 -58 0 
1 86 54 0 
1 -38 -62 0 
1 -12 -120 0 
1 -129 -11 0 
1 103 -46 0 
1 -35 -94 0 
1 -6 -11 0 
1 -83 -25 0 
1 -115 -21 0 
1 88 48 0 
1 9 6 0 
1 -96 -43 0 
1 128 101 0 
1 106 -104 0 
1 71 -100 0 
1 -52 -16 0 
1 -129 -15 0 
1 -82 -45 0 
1 -98 3 0 
1 6 124 0 
1 117 41 0 
1 -8 -6 0 
